# Solution for model MISC07
# Objective value = 2810
COL001 0
COL002 0
COL003 0
COL004 0
COL005 1
COL006 0
COL007 0
COL008 0
COL009 0
COL010 0
COL011 0
COL012 0
COL013 0
COL014 0
COL015 0
COL016 0
COL017 0
COL018 0
COL019 0
COL020 0
COL021 0
COL022 0
COL023 0
COL024 0
COL025 0
COL026 0
COL027 0
COL028 0
COL029 0
COL030 0
COL031 0
COL032 0
COL033 0
COL034 0
COL035 1
COL036 0
COL037 0
COL038 0
COL039 0
COL040 0
COL041 0
COL042 0
COL043 0
COL044 0
COL045 0
COL046 0
COL047 0
COL048 0
COL049 0
COL050 0
COL051 0
COL052 0
COL053 0
COL054 0
COL055 0
COL056 0
COL057 0
COL058 0
COL059 0
COL060 0
COL061 0
COL062 0
COL063 0
COL064 0
COL065 0
COL066 0
COL067 0
COL068 0
COL069 0
COL070 0
COL071 0
COL072 0
COL073 0
COL074 0
COL075 0
COL076 0
COL077 1
COL078 0
COL079 0
COL080 0
COL081 0
COL082 0
COL083 0
COL084 0
COL085 0
COL086 0
COL087 0
COL088 0
COL089 0
COL090 0
COL091 0
COL092 0
COL093 0
COL094 0
COL095 0
COL096 0
COL097 0
COL098 0
COL099 0
COL100 0
COL101 0
COL102 0
COL103 1
COL104 0
COL105 0
COL106 0
COL107 0
COL108 0
COL109 0
COL110 0
COL111 0
COL112 0
COL113 0
COL114 0
COL115 0
COL116 0
COL117 0
COL118 1
COL119 0
COL120 0
COL121 0
COL122 0
COL123 0
COL124 0
COL125 0
COL126 0
COL127 0
COL128 0
COL129 0
COL130 0
COL131 0
COL132 0
COL133 0
COL134 0
COL135 0
COL136 0
COL137 0
COL138 0
COL139 0
COL140 0
COL141 0
COL142 0
COL143 0
COL144 0
COL145 0
COL146 0
COL147 0
COL148 0
COL149 0
COL150 0
COL151 0
COL152 0
COL153 0
COL154 0
COL155 0
COL156 1
COL157 0
COL158 0
COL159 0
COL160 0
COL161 0
COL162 0
COL163 0
COL164 0
COL165 0
COL166 0
COL167 0
COL168 0
COL169 0
COL170 0
COL171 0
COL172 0
COL173 0
COL174 0
COL175 0
COL176 0
COL177 0
COL178 0
COL179 0
COL180 0
COL181 0
COL182 0
COL183 0
COL184 0
COL185 0
COL186 1
COL187 0
COL188 0
COL189 0
COL190 0
COL191 1
COL192 0
COL193 0
COL194 0
COL195 0
COL196 0
COL197 0
COL198 0
COL199 0
COL200 0
COL201 0
COL202 1
COL203 0
COL204 0
COL205 0
COL206 0
COL207 1
COL208 0
COL209 0
COL210 0
COL211 0
COL212 0
COL213 0
COL214 0
COL215 0
COL216 0
COL217 0
COL218 0
COL219 0
COL220 0
COL221 0
COL222 0
COL223 0
COL224 0
COL225 0
COL226 0
COL227 0
COL228 0
COL229 0
COL230 0
COL231 0
COL232 0
COL233 0
COL234 0
COL235 0
COL236 0
COL237 0
COL238 0
COL239 0
COL240 0
COL241 0
COL242 0
COL243 0
COL244 1
COL245 0
COL246 1
COL247 0
COL248 1
COL249 0
COL250 1
COL251 0
COL252 1
COL253 0
COL254 1
COL255 0
COL256 1
COL257 0
COL258 1
COL259 0
COL260 2810
